55
1 0 11
2 0 6
2 1 11
3 0 5
3 1 2
3 2 5
4 0 4
4 1 1
4 2 11
4 3 2
5 0 12
5 1 5
5 2 12
5 3 4
5 4 7
6 0 4
6 1 6
6 2 2
6 3 1
6 4 1
6 5 1
7 0 11
7 1 12
7 2 10
7 3 1
7 4 7
7 5 8
7 6 8
8 0 3
8 1 3
8 2 9
8 3 12
8 4 5
8 5 8
8 6 6
8 7 1
9 0 1
9 1 4
9 2 6
9 3 1
9 4 11
9 5 6
9 6 11
9 7 2
9 8 1
10 0 9
10 1 6
10 2 11
10 3 12
10 4 1
10 5 9
10 6 3
10 7 10
10 8 4
10 9 6
11 0 3
11 1 4
11 2 11
11 3 8
11 4 4
11 5 6
11 6 2
11 7 7
11 8 9
11 9 4
11 10 8
12 0 8
12 1 2
12 2 8
12 3 8
12 4 1
12 5 4
12 6 7
12 7 3
12 8 10
12 9 8
12 10 6
12 11 2
13 0 6
13 1 6
13 2 8
13 3 2
13 4 2
13 5 4
13 6 3
13 7 1
13 8 7
13 9 7
13 10 10
13 11 7
13 12 7
14 0 12
14 1 10
14 2 7
14 3 10
14 4 6
14 5 1
14 6 10
14 7 5
14 8 10
14 9 4
14 10 4
14 11 5
14 12 12
14 13 8
15 0 11
15 1 4
15 2 12
15 3 9
15 4 1
15 5 10
15 6 9
15 7 4
15 8 6
15 9 9
15 10 11
15 11 5
15 12 8
15 13 8
15 14 7
16 0 3
16 1 12
16 2 9
16 3 1
16 4 5
16 5 4
16 6 7
16 7 8
16 8 9
16 9 5
16 10 9
16 11 9
16 12 4
16 13 4
16 14 7
16 15 4
17 0 4
17 1 5
17 2 5
17 3 4
17 4 8
17 5 8
17 6 10
17 7 12
17 8 9
17 9 7
17 10 1
17 11 12
17 12 11
17 13 5
17 14 4
17 15 2
17 16 1
18 0 2
18 1 12
18 2 5
18 3 5
18 4 4
18 5 11
18 6 9
18 7 6
18 8 8
18 9 8
18 10 1
18 11 10
18 12 12
18 13 12
18 14 3
18 15 4
18 16 10
18 17 5
19 0 12
19 1 11
19 2 7
19 3 11
19 4 11
19 5 6
19 6 11
19 7 5
19 8 8
19 9 7
19 10 9
19 11 1
19 12 4
19 13 12
19 14 8
19 15 1
19 16 12
19 17 12
19 18 2
20 0 11
20 1 8
20 2 10
20 3 6
20 4 9
20 5 1
20 6 5
20 7 10
20 8 10
20 9 8
20 10 11
20 11 9
20 12 12
20 13 3
20 14 5
20 15 12
20 16 2
20 17 8
20 18 6
20 19 1
21 0 10
21 1 1
21 2 4
21 3 8
21 4 2
21 5 12
21 6 6
21 7 2
21 8 5
21 9 1
21 10 12
21 11 4
21 12 5
21 13 12
21 14 3
21 15 9
21 16 6
21 17 7
21 18 7
21 19 4
21 20 11
22 0 10
22 1 6
22 2 6
22 3 11
22 4 11
22 5 4
22 6 8
22 7 8
22 8 6
22 9 8
22 10 7
22 11 12
22 12 2
22 13 2
22 14 4
22 15 10
22 16 10
22 17 10
22 18 1
22 19 3
22 20 10
22 21 3
23 0 8
23 1 12
23 2 8
23 3 3
23 4 8
23 5 10
23 6 2
23 7 12
23 8 10
23 9 2
23 10 10
23 11 11
23 12 8
23 13 1
23 14 11
23 15 3
23 16 4
23 17 12
23 18 1
23 19 12
23 20 11
23 21 3
23 22 11
24 0 12
24 1 12
24 2 8
24 3 6
24 4 1
24 5 7
24 6 12
24 7 6
24 8 3
24 9 8
24 10 11
24 11 1
24 12 5
24 13 5
24 14 2
24 15 11
24 16 1
24 17 9
24 18 8
24 19 1
24 20 2
24 21 5
24 22 4
24 23 7
25 0 8
25 1 2
25 2 6
25 3 9
25 4 12
25 5 12
25 6 2
25 7 11
25 8 7
25 9 1
25 10 2
25 11 2
25 12 8
25 13 4
25 14 12
25 15 11
25 16 10
25 17 1
25 18 10
25 19 10
25 20 11
25 21 2
25 22 7
25 23 5
25 24 4
26 0 11
26 1 6
26 2 6
26 3 12
26 4 1
26 5 4
26 6 11
26 7 4
26 8 4
26 9 10
26 10 3
26 11 7
26 12 10
26 13 12
26 14 5
26 15 6
26 16 11
26 17 1
26 18 9
26 19 9
26 20 7
26 21 5
26 22 12
26 23 9
26 24 2
26 25 2
27 0 9
27 1 11
27 2 11
27 3 2
27 4 5
27 5 6
27 6 4
27 7 9
27 8 12
27 9 6
27 10 6
27 11 9
27 12 3
27 13 10
27 14 1
27 15 4
27 16 11
27 17 8
27 18 7
27 19 11
27 20 3
27 21 11
27 22 8
27 23 8
27 24 4
27 25 10
27 26 11
28 0 1
28 1 1
28 2 9
28 3 3
28 4 5
28 5 9
28 6 1
28 7 6
28 8 5
28 9 2
28 10 6
28 11 12
28 12 2
28 13 2
28 14 5
28 15 3
28 16 10
28 17 6
28 18 8
28 19 5
28 20 5
28 21 12
28 22 5
28 23 3
28 24 8
28 25 10
28 26 10
28 27 4
29 0 5
29 1 9
29 2 8
29 3 4
29 4 7
29 5 2
29 6 2
29 7 10
29 8 6
29 9 10
29 10 6
29 11 2
29 12 12
29 13 11
29 14 3
29 15 10
29 16 6
29 17 2
29 18 4
29 19 2
29 20 4
29 21 6
29 22 11
29 23 6
29 24 10
29 25 5
29 26 9
29 27 9
29 28 7
30 0 8
30 1 4
30 2 5
30 3 11
30 4 10
30 5 4
30 6 12
30 7 1
30 8 9
30 9 5
30 10 5
30 11 5
30 12 7
30 13 12
30 14 3
30 15 5
30 16 1
30 17 9
30 18 11
30 19 10
30 20 6
30 21 5
30 22 11
30 23 8
30 24 8
30 25 7
30 26 10
30 27 4
30 28 9
30 29 10
31 0 10
31 1 7
31 2 11
31 3 3
31 4 3
31 5 1
31 6 11
31 7 12
31 8 5
31 9 1
31 10 7
31 11 11
31 12 7
31 13 3
31 14 10
31 15 5
31 16 12
31 17 3
31 18 12
31 19 7
31 20 8
31 21 3
31 22 4
31 23 6
31 24 2
31 25 8
31 26 2
31 27 1
31 28 11
31 29 11
31 30 11
32 0 4
32 1 12
32 2 11
32 3 5
32 4 6
32 5 6
32 6 9
32 7 2
32 8 10
32 9 8
32 10 8
32 11 10
32 12 5
32 13 6
32 14 3
32 15 8
32 16 3
32 17 7
32 18 12
32 19 1
32 20 3
32 21 7
32 22 9
32 23 1
32 24 11
32 25 1
32 26 5
32 27 5
32 28 4
32 29 5
32 30 5
32 31 5
33 0 9
33 1 2
33 2 12
33 3 9
33 4 4
33 5 4
33 6 7
33 7 11
33 8 11
33 9 4
33 10 12
33 11 11
33 12 4
33 13 3
33 14 4
33 15 2
33 16 9
33 17 12
33 18 10
33 19 1
33 20 12
33 21 6
33 22 3
33 23 3
33 24 4
33 25 9
33 26 2
33 27 6
33 28 8
33 29 11
33 30 5
33 31 12
33 32 4
34 0 10
34 1 11
34 2 11
34 3 12
34 4 1
34 5 2
34 6 4
34 7 4
34 8 5
34 9 7
34 10 12
34 11 12
34 12 6
34 13 5
34 14 8
34 15 7
34 16 9
34 17 6
34 18 1
34 19 4
34 20 1
34 21 4
34 22 5
34 23 9
34 24 6
34 25 8
34 26 5
34 27 8
34 28 11
34 29 5
34 30 9
34 31 7
34 32 12
34 33 3
35 0 1
35 1 9
35 2 5
35 3 9
35 4 6
35 5 10
35 6 11
35 7 10
35 8 9
35 9 7
35 10 8
35 11 10
35 12 3
35 13 3
35 14 5
35 15 6
35 16 2
35 17 8
35 18 1
35 19 7
35 20 8
35 21 5
35 22 5
35 23 2
35 24 11
35 25 2
35 26 6
35 27 5
35 28 7
35 29 9
35 30 11
35 31 1
35 32 2
35 33 12
35 34 1
36 0 4
36 1 3
36 2 9
36 3 5
36 4 5
36 5 4
36 6 10
36 7 4
36 8 10
36 9 11
36 10 1
36 11 5
36 12 8
36 13 4
36 14 4
36 15 9
36 16 9
36 17 4
36 18 8
36 19 9
36 20 4
36 21 3
36 22 1
36 23 7
36 24 2
36 25 11
36 26 1
36 27 11
36 28 1
36 29 11
36 30 8
36 31 10
36 32 4
36 33 12
36 34 1
36 35 1
37 0 8
37 1 11
37 2 11
37 3 8
37 4 12
37 5 3
37 6 4
37 7 4
37 8 4
37 9 11
37 10 3
37 11 4
37 12 5
37 13 2
37 14 9
37 15 2
37 16 6
37 17 3
37 18 3
37 19 7
37 20 9
37 21 7
37 22 5
37 23 8
37 24 2
37 25 5
37 26 8
37 27 3
37 28 8
37 29 7
37 30 3
37 31 7
37 32 10
37 33 5
37 34 8
37 35 12
37 36 6
38 0 9
38 1 11
38 2 6
38 3 12
38 4 5
38 5 4
38 6 8
38 7 4
38 8 3
38 9 1
38 10 5
38 11 9
38 12 4
38 13 7
38 14 6
38 15 7
38 16 10
38 17 7
38 18 10
38 19 6
38 20 8
38 21 5
38 22 1
38 23 7
38 24 8
38 25 2
38 26 12
38 27 11
38 28 4
38 29 3
38 30 1
38 31 8
38 32 2
38 33 3
38 34 9
38 35 5
38 36 8
38 37 11
39 0 1
39 1 9
39 2 9
39 3 8
39 4 6
39 5 10
39 6 9
39 7 8
39 8 7
39 9 7
39 10 2
39 11 5
39 12 11
39 13 5
39 14 9
39 15 10
39 16 4
39 17 7
39 18 10
39 19 10
39 20 6
39 21 6
39 22 8
39 23 12
39 24 4
39 25 2
39 26 2
39 27 4
39 28 12
39 29 5
39 30 9
39 31 10
39 32 3
39 33 12
39 34 11
39 35 5
39 36 2
39 37 2
39 38 8
40 0 11
40 1 6
40 2 8
40 3 2
40 4 9
40 5 3
40 6 2
40 7 5
40 8 5
40 9 12
40 10 5
40 11 2
40 12 8
40 13 10
40 14 8
40 15 11
40 16 7
40 17 7
40 18 10
40 19 2
40 20 9
40 21 4
40 22 11
40 23 7
40 24 4
40 25 6
40 26 7
40 27 10
40 28 9
40 29 3
40 30 6
40 31 10
40 32 5
40 33 12
40 34 11
40 35 6
40 36 4
40 37 2
40 38 3
40 39 4
41 0 1
41 1 7
41 2 10
41 3 12
41 4 12
41 5 5
41 6 12
41 7 9
41 8 7
41 9 3
41 10 4
41 11 5
41 12 2
41 13 7
41 14 8
41 15 3
41 16 1
41 17 1
41 18 12
41 19 10
41 20 9
41 21 3
41 22 3
41 23 4
41 24 6
41 25 2
41 26 4
41 27 11
41 28 9
41 29 4
41 30 9
41 31 6
41 32 9
41 33 1
41 34 8
41 35 6
41 36 4
41 37 1
41 38 4
41 39 6
41 40 8
42 0 11
42 1 8
42 2 11
42 3 6
42 4 7
42 5 3
42 6 5
42 7 9
42 8 8
42 9 8
42 10 7
42 11 11
42 12 7
42 13 10
42 14 2
42 15 5
42 16 8
42 17 12
42 18 11
42 19 2
42 20 3
42 21 8
42 22 11
42 23 9
42 24 7
42 25 5
42 26 12
42 27 10
42 28 2
42 29 11
42 30 2
42 31 5
42 32 6
42 33 4
42 34 2
42 35 12
42 36 10
42 37 12
42 38 10
42 39 5
42 40 8
42 41 12
43 0 9
43 1 2
43 2 1
43 3 11
43 4 3
43 5 4
43 6 7
43 7 8
43 8 11
43 9 4
43 10 7
43 11 8
43 12 8
43 13 5
43 14 10
43 15 7
43 16 9
43 17 9
43 18 3
43 19 12
43 20 2
43 21 3
43 22 10
43 23 10
43 24 4
43 25 10
43 26 8
43 27 10
43 28 7
43 29 11
43 30 10
43 31 11
43 32 4
43 33 7
43 34 2
43 35 6
43 36 12
43 37 11
43 38 6
43 39 10
43 40 12
43 41 7
43 42 10
44 0 11
44 1 7
44 2 1
44 3 4
44 4 3
44 5 7
44 6 11
44 7 3
44 8 11
44 9 9
44 10 2
44 11 2
44 12 3
44 13 7
44 14 12
44 15 10
44 16 3
44 17 9
44 18 4
44 19 8
44 20 2
44 21 2
44 22 6
44 23 10
44 24 4
44 25 10
44 26 12
44 27 10
44 28 9
44 29 8
44 30 7
44 31 3
44 32 2
44 33 4
44 34 11
44 35 2
44 36 2
44 37 4
44 38 10
44 39 1
44 40 12
44 41 2
44 42 11
44 43 1
45 0 3
45 1 10
45 2 8
45 3 9
45 4 2
45 5 4
45 6 1
45 7 4
45 8 12
45 9 2
45 10 3
45 11 2
45 12 3
45 13 7
45 14 5
45 15 8
45 16 12
45 17 3
45 18 3
45 19 8
45 20 7
45 21 2
45 22 12
45 23 12
45 24 7
45 25 2
45 26 7
45 27 11
45 28 6
45 29 2
45 30 8
45 31 8
45 32 1
45 33 11
45 34 5
45 35 12
45 36 12
45 37 4
45 38 12
45 39 9
45 40 2
45 41 10
45 42 4
45 43 8
45 44 10
46 0 9
46 1 11
46 2 8
46 3 9
46 4 2
46 5 11
46 6 10
46 7 7
46 8 1
46 9 11
46 10 7
46 11 2
46 12 12
46 13 6
46 14 7
46 15 4
46 16 7
46 17 2
46 18 3
46 19 2
46 20 1
46 21 9
46 22 8
46 23 1
46 24 6
46 25 12
46 26 8
46 27 7
46 28 7
46 29 12
46 30 11
46 31 5
46 32 10
46 33 3
46 34 9
46 35 6
46 36 5
46 37 11
46 38 8
46 39 9
46 40 5
46 41 1
46 42 4
46 43 11
46 44 10
46 45 7
47 0 12
47 1 3
47 2 5
47 3 4
47 4 1
47 5 5
47 6 2
47 7 7
47 8 10
47 9 4
47 10 2
47 11 12
47 12 12
47 13 10
47 14 4
47 15 3
47 16 7
47 17 12
47 18 1
47 19 12
47 20 5
47 21 11
47 22 1
47 23 6
47 24 9
47 25 10
47 26 1
47 27 3
47 28 7
47 29 12
47 30 6
47 31 9
47 32 9
47 33 6
47 34 8
47 35 5
47 36 11
47 37 11
47 38 4
47 39 5
47 40 12
47 41 4
47 42 7
47 43 12
47 44 4
47 45 3
47 46 8
48 0 12
48 1 5
48 2 1
48 3 8
48 4 3
48 5 3
48 6 11
48 7 5
48 8 2
48 9 8
48 10 8
48 11 2
48 12 10
48 13 1
48 14 9
48 15 8
48 16 4
48 17 1
48 18 10
48 19 3
48 20 10
48 21 12
48 22 11
48 23 4
48 24 2
48 25 3
48 26 11
48 27 1
48 28 9
48 29 3
48 30 8
48 31 4
48 32 7
48 33 8
48 34 8
48 35 12
48 36 10
48 37 3
48 38 6
48 39 9
48 40 10
48 41 7
48 42 11
48 43 12
48 44 3
48 45 3
48 46 8
48 47 3
49 0 7
49 1 9
49 2 5
49 3 9
49 4 11
49 5 9
49 6 6
49 7 10
49 8 12
49 9 1
49 10 9
49 11 10
49 12 10
49 13 12
49 14 6
49 15 10
49 16 12
49 17 11
49 18 2
49 19 5
49 20 1
49 21 1
49 22 6
49 23 4
49 24 6
49 25 6
49 26 1
49 27 12
49 28 6
49 29 10
49 30 11
49 31 2
49 32 11
49 33 3
49 34 9
49 35 9
49 36 3
49 37 3
49 38 10
49 39 12
49 40 1
49 41 6
49 42 2
49 43 12
49 44 8
49 45 7
49 46 5
49 47 6
49 48 6
50 0 9
50 1 12
50 2 5
50 3 8
50 4 12
50 5 9
50 6 1
50 7 9
50 8 9
50 9 6
50 10 10
50 11 5
50 12 12
50 13 11
50 14 6
50 15 3
50 16 1
50 17 6
50 18 2
50 19 12
50 20 4
50 21 10
50 22 10
50 23 1
50 24 3
50 25 5
50 26 3
50 27 11
50 28 4
50 29 9
50 30 3
50 31 10
50 32 1
50 33 1
50 34 10
50 35 8
50 36 5
50 37 10
50 38 1
50 39 7
50 40 2
50 41 2
50 42 9
50 43 1
50 44 12
50 45 5
50 46 10
50 47 9
50 48 5
50 49 6
51 0 9
51 1 2
51 2 4
51 3 4
51 4 3
51 5 4
51 6 11
51 7 1
51 8 1
51 9 2
51 10 2
51 11 6
51 12 6
51 13 11
51 14 8
51 15 3
51 16 11
51 17 4
51 18 3
51 19 1
51 20 8
51 21 8
51 22 11
51 23 4
51 24 1
51 25 5
51 26 6
51 27 1
51 28 12
51 29 12
51 30 3
51 31 7
51 32 5
51 33 6
51 34 2
51 35 6
51 36 2
51 37 4
51 38 6
51 39 5
51 40 5
51 41 2
51 42 3
51 43 5
51 44 3
51 45 11
51 46 1
51 47 3
51 48 12
51 49 2
51 50 7
52 0 4
52 1 1
52 2 11
52 3 6
52 4 2
52 5 9
52 6 4
52 7 11
52 8 2
52 9 11
52 10 2
52 11 12
52 12 8
52 13 8
52 14 5
52 15 1
52 16 4
52 17 4
52 18 3
52 19 4
52 20 2
52 21 8
52 22 11
52 23 3
52 24 7
52 25 12
52 26 10
52 27 12
52 28 11
52 29 3
52 30 6
52 31 5
52 32 11
52 33 9
52 34 6
52 35 6
52 36 11
52 37 7
52 38 5
52 39 10
52 40 5
52 41 8
52 42 12
52 43 11
52 44 3
52 45 12
52 46 8
52 47 10
52 48 1
52 49 11
52 50 12
52 51 5
53 0 1
53 1 7
53 2 9
53 3 7
53 4 8
53 5 1
53 6 9
53 7 5
53 8 9
53 9 1
53 10 10
53 11 12
53 12 8
53 13 9
53 14 10
53 15 8
53 16 2
53 17 8
53 18 10
53 19 7
53 20 8
53 21 4
53 22 9
53 23 3
53 24 9
53 25 5
53 26 5
53 27 1
53 28 7
53 29 11
53 30 3
53 31 9
53 32 7
53 33 3
53 34 3
53 35 3
53 36 8
53 37 7
53 38 9
53 39 5
53 40 12
53 41 7
53 42 4
53 43 5
53 44 8
53 45 2
53 46 6
53 47 5
53 48 7
53 49 10
53 50 7
53 51 6
53 52 6
54 0 9
54 1 10
54 2 12
54 3 2
54 4 6
54 5 2
54 6 10
54 7 8
54 8 8
54 9 1
54 10 8
54 11 9
54 12 9
54 13 9
54 14 7
54 15 10
54 16 3
54 17 5
54 18 1
54 19 4
54 20 9
54 21 12
54 22 7
54 23 3
54 24 6
54 25 11
54 26 6
54 27 1
54 28 11
54 29 10
54 30 1
54 31 4
54 32 9
54 33 11
54 34 12
54 35 3
54 36 5
54 37 8
54 38 12
54 39 7
54 40 2
54 41 12
54 42 6
54 43 2
54 44 7
54 45 9
54 46 6
54 47 5
54 48 12
54 49 2
54 50 5
54 51 4
54 52 1
54 53 6
